&BANDS
    prefix = 'tio2',
    outdir = './tmp',
    filband = 'tio2.bands'
/

