&CONTROL
  calculation = 'scf',
  prefix      = 'TiO2',
  outdir      = './tmp',
  pseudo_dir  = '/home/dean_gov/qe-pp/gbrv_lda',
/
&SYSTEM
  ibrav   = 0,
  ntyp    = 2,
  nat     = 6,
  ecutwfc = 40,
  ecutrho = 320,
  occupations = 'fixed',
  input_dft   = 'pz',
/
&ELECTRONS
  conv_thr    = 1.0d-6,
  mixing_beta = 0.3,
/
ATOMIC_SPECIES
 Ti  47.867  ti_lda_v1.4.uspp.F.UPF
 O   15.999  o_lda_v1.2.uspp.F.UPF
ATOMIC_POSITIONS (angstrom)
Ti               2.2751682565        2.2751682565        1.4620848609
Ti               0.0000000000        0.0000000000        0.0000000000
O                3.1673130911        3.1673130911       -0.0000000000
O                0.8921448346        3.6581916783        1.4620848609
O                1.3830234218        1.3830234218       -0.0000000000
O                3.6581916783        0.8921448346        1.4620848609

CELL_PARAMETERS (angstrom)
   4.550332600   0.000000000   0.000000000
   0.000000000   4.550332600   0.000000000
   0.000000000   0.000000000   2.924165783

K_POINTS {automatic}
 8 8 12  0 0 0
