&CONTROL
  calculation = 'bands',
  prefix      = 'TiO2',
  outdir      = './tmp',
  pseudo_dir  = '/home/dean_gov/qe-pp/gbrv_lda',
/
&SYSTEM
  ibrav   = 0,
  ntyp    = 2,
  nat     = 6,
  ecutwfc = 40,
  ecutrho = 320,
  occupations = 'fixed',
  input_dft   = 'pz',
  nbnd     = 50,
  nosym    = .true.,
/
&ELECTRONS
  conv_thr    = 1.0d-6,
  mixing_beta = 0.3,
/
ATOMIC_SPECIES
 Ti  47.867  ti_lda_v1.4.uspp.F.UPF
 O   15.999  o_lda_v1.2.uspp.F.UPF
ATOMIC_POSITIONS (angstrom)
Ti               2.2751682565        2.2751682565        1.4620848609
Ti               0.0000000000        0.0000000000        0.0000000000
O                3.1673130911        3.1673130911       -0.0000000000
O                0.8921448346        3.6581916783        1.4620848609
O                1.3830234218        1.3830234218       -0.0000000000
O                3.6581916783        0.8921448346        1.4620848609

CELL_PARAMETERS (angstrom)
   4.550332600   0.000000000   0.000000000
   0.000000000   4.550332600   0.000000000
   0.000000000   0.000000000   2.924165783

K_POINTS {crystal_b}
141
   0.00000000    0.00000000    0.00000000  1
   0.00000000    0.02500000    0.00000000  1
   0.00000000    0.05000000    0.00000000  1
   0.00000000    0.07500000    0.00000000  1
   0.00000000    0.10000000    0.00000000  1
   0.00000000    0.12500000    0.00000000  1
   0.00000000    0.15000000    0.00000000  1
   0.00000000    0.17500000    0.00000000  1
   0.00000000    0.20000000    0.00000000  1
   0.00000000    0.22500000    0.00000000  1
   0.00000000    0.25000000    0.00000000  1
   0.00000000    0.27500000    0.00000000  1
   0.00000000    0.30000000    0.00000000  1
   0.00000000    0.32500000    0.00000000  1
   0.00000000    0.35000000    0.00000000  1
   0.00000000    0.37500000    0.00000000  1
   0.00000000    0.40000000    0.00000000  1
   0.00000000    0.42500000    0.00000000  1
   0.00000000    0.45000000    0.00000000  1
   0.00000000    0.47500000    0.00000000  1
   0.00000000    0.50000000    0.00000000  1
   0.02500000    0.50000000    0.00000000  1
   0.05000000    0.50000000    0.00000000  1
   0.07500000    0.50000000    0.00000000  1
   0.10000000    0.50000000    0.00000000  1
   0.12500000    0.50000000    0.00000000  1
   0.15000000    0.50000000    0.00000000  1
   0.17500000    0.50000000    0.00000000  1
   0.20000000    0.50000000    0.00000000  1
   0.22500000    0.50000000    0.00000000  1
   0.25000000    0.50000000    0.00000000  1
   0.27500000    0.50000000    0.00000000  1
   0.30000000    0.50000000    0.00000000  1
   0.32500000    0.50000000    0.00000000  1
   0.35000000    0.50000000    0.00000000  1
   0.37500000    0.50000000    0.00000000  1
   0.40000000    0.50000000    0.00000000  1
   0.42500000    0.50000000    0.00000000  1
   0.45000000    0.50000000    0.00000000  1
   0.47500000    0.50000000    0.00000000  1
   0.50000000    0.50000000    0.00000000  1
   0.47500000    0.47500000    0.00000000  1
   0.45000000    0.45000000    0.00000000  1
   0.42500000    0.42500000    0.00000000  1
   0.40000000    0.40000000    0.00000000  1
   0.37500000    0.37500000    0.00000000  1
   0.35000000    0.35000000    0.00000000  1
   0.32500000    0.32500000    0.00000000  1
   0.30000000    0.30000000    0.00000000  1
   0.27500000    0.27500000    0.00000000  1
   0.25000000    0.25000000    0.00000000  1
   0.22500000    0.22500000    0.00000000  1
   0.20000000    0.20000000    0.00000000  1
   0.17500000    0.17500000    0.00000000  1
   0.15000000    0.15000000    0.00000000  1
   0.12500000    0.12500000    0.00000000  1
   0.10000000    0.10000000    0.00000000  1
   0.07500000    0.07500000    0.00000000  1
   0.05000000    0.05000000    0.00000000  1
   0.02500000    0.02500000    0.00000000  1
   0.00000000    0.00000000    0.00000000  1
   0.00000000    0.00000000    0.02500000  1
   0.00000000    0.00000000    0.05000000  1
   0.00000000    0.00000000    0.07500000  1
   0.00000000    0.00000000    0.10000000  1
   0.00000000    0.00000000    0.12500000  1
   0.00000000    0.00000000    0.15000000  1
   0.00000000    0.00000000    0.17500000  1
   0.00000000    0.00000000    0.20000000  1
   0.00000000    0.00000000    0.22500000  1
   0.00000000    0.00000000    0.25000000  1
   0.00000000    0.00000000    0.27500000  1
   0.00000000    0.00000000    0.30000000  1
   0.00000000    0.00000000    0.32500000  1
   0.00000000    0.00000000    0.35000000  1
   0.00000000    0.00000000    0.37500000  1
   0.00000000    0.00000000    0.40000000  1
   0.00000000    0.00000000    0.42500000  1
   0.00000000    0.00000000    0.45000000  1
   0.00000000    0.00000000    0.47500000  1
   0.00000000    0.00000000    0.50000000  1
   0.00000000    0.02500000    0.50000000  1
   0.00000000    0.05000000    0.50000000  1
   0.00000000    0.07500000    0.50000000  1
   0.00000000    0.10000000    0.50000000  1
   0.00000000    0.12500000    0.50000000  1
   0.00000000    0.15000000    0.50000000  1
   0.00000000    0.17500000    0.50000000  1
   0.00000000    0.20000000    0.50000000  1
   0.00000000    0.22500000    0.50000000  1
   0.00000000    0.25000000    0.50000000  1
   0.00000000    0.27500000    0.50000000  1
   0.00000000    0.30000000    0.50000000  1
   0.00000000    0.32500000    0.50000000  1
   0.00000000    0.35000000    0.50000000  1
   0.00000000    0.37500000    0.50000000  1
   0.00000000    0.40000000    0.50000000  1
   0.00000000    0.42500000    0.50000000  1
   0.00000000    0.45000000    0.50000000  1
   0.00000000    0.47500000    0.50000000  1
   0.00000000    0.50000000    0.50000000  1
   0.02500000    0.50000000    0.50000000  1
   0.05000000    0.50000000    0.50000000  1
   0.07500000    0.50000000    0.50000000  1
   0.10000000    0.50000000    0.50000000  1
   0.12500000    0.50000000    0.50000000  1
   0.15000000    0.50000000    0.50000000  1
   0.17500000    0.50000000    0.50000000  1
   0.20000000    0.50000000    0.50000000  1
   0.22500000    0.50000000    0.50000000  1
   0.25000000    0.50000000    0.50000000  1
   0.27500000    0.50000000    0.50000000  1
   0.30000000    0.50000000    0.50000000  1
   0.32500000    0.50000000    0.50000000  1
   0.35000000    0.50000000    0.50000000  1
   0.37500000    0.50000000    0.50000000  1
   0.40000000    0.50000000    0.50000000  1
   0.42500000    0.50000000    0.50000000  1
   0.45000000    0.50000000    0.50000000  1
   0.47500000    0.50000000    0.50000000  1
   0.50000000    0.50000000    0.50000000  1
   0.47500000    0.47500000    0.50000000  1
   0.45000000    0.45000000    0.50000000  1
   0.42500000    0.42500000    0.50000000  1
   0.40000000    0.40000000    0.50000000  1
   0.37500000    0.37500000    0.50000000  1
   0.35000000    0.35000000    0.50000000  1
   0.32500000    0.32500000    0.50000000  1
   0.30000000    0.30000000    0.50000000  1
   0.27500000    0.27500000    0.50000000  1
   0.25000000    0.25000000    0.50000000  1
   0.22500000    0.22500000    0.50000000  1
   0.20000000    0.20000000    0.50000000  1
   0.17500000    0.17500000    0.50000000  1
   0.15000000    0.15000000    0.50000000  1
   0.12500000    0.12500000    0.50000000  1
   0.10000000    0.10000000    0.50000000  1
   0.07500000    0.07500000    0.50000000  1
   0.05000000    0.05000000    0.50000000  1
   0.02500000    0.02500000    0.50000000  1
   0.00000000    0.00000000    0.50000000  1
